# Solution for model qis_1000_800_198
# Objective value = 3.0411150328685369e+02
x[0] 1
x[1] 0
x[2] 1
x[3] 0
x[4] 0
x[5] 1
x[6] 1
x[7] 1
x[8] 1
x[9] 0
x[10] 1
x[11] 0
x[12] 1
x[13] 1
x[14] 9.9999994913845369e-01
x[15] 0
x[16] -1.5258463870182482e-07
x[17] 2.9015045436334719e-08
x[18] 1
x[19] 0
x[20] 1
x[21] 0
x[22] 1
x[23] 1
x[24] 1
x[25] 1.0000001016602333e+00
x[26] 1.0000000217491454e+00
x[27] 1
x[28] 1.0000000508238207e+00
x[29] 1
x[30] 5.0779856310766293e-08
x[31] 1
x[32] 1.0000000653414152e+00
x[33] 1
x[34] 1.0000001524534288e+00
x[35] 1
x[36] 0
x[37] 9.4323485194320266e-08
x[38] 1
x[39] 0
x[40] 0
x[41] 0
x[42] 1
x[43] 0
x[44] 2.8987144387403829e-08
x[45] 1
x[46] 0
x[47] 0
x[48] 0
x[49] 0
x[50] 0
x[51] 1
x[52] 1
x[53] 1.0000000144531447e+00
x[54] 1
x[55] 1
x[56] 1
x[57] 0
x[58] 0
x[59] 0
x[60] 1
x[61] 1
x[62] 1.0000000144811945e+00
x[63] 1
x[64] 0
x[65] 1
x[66] 3.5599005872243842e-07
x[67] -6.2060085519216313e-08
x[68] 1.0000004687152797e+00
x[69] 1
x[70] 1
x[71] 1
x[72] 0
x[73] 1
x[74] 9.9999992734064846e-01
x[75] 1
x[76] 0
x[77] 9.9999995247178641e-01
x[78] 1
x[79] 9.9999997593626022e-01
x[80] 1
x[81] 1
x[82] 0
x[83] 9.9999995095493865e-01
x[84] 1
x[85] 1
x[86] -9.8389758172356585e-08
x[87] 0
x[88] 1
x[89] 1
x[90] 0
x[91] 0
x[92] -3.2696709673096791e-08
x[93] 1.0000000541304013e+00
x[94] 0
x[95] -5.0861546180296062e-08
x[96] -1.2352089878523696e-07
x[97] 0
x[98] 0
x[99] 1
x[100] -1.4531871705969479e-08
x[101] 1.0000001125770810e+00
x[102] 1
x[103] 0
x[104] 0
x[105] 1
x[106] -3.2696709714719229e-08
x[107] 0
x[108] 0
x[109] 0
x[110] -5.0861546530001078e-08
x[111] 0
x[112] 1
x[113] 1
x[114] 1
x[115] 0
x[116] 0
x[117] 1
x[118] 1
x[119] 1
x[120] 9.9999994913845314e-01
x[121] 0
x[122] 0
x[123] 1
x[124] 0
x[125] 0
x[126] 0
x[127] -1.5052983339632784e-07
x[128] 1
x[129] 0
x[130] 0
x[131] 1.0000001016870814e+00
x[132] 0
x[133] 1
x[134] 1
x[135] 0
x[136] 0
x[137] -1.0172309150568992e-07
x[138] 1
x[139] 7.9743926649462048e-08
x[140] 0
x[141] 1.0000000326068959e+00
x[142] 1
x[143] 1
x[144] 0
x[145] 5.0817928602094123e-08
x[146] 0
x[147] 1.0000000508182116e+00
x[148] 0
x[149] 0
x[150] 0
x[151] 0
x[152] 1
x[153] 1
x[154] 1
x[155] 1
x[156] 1
x[157] 1
x[158] 1
x[159] 0
x[160] 1
x[161] 7.2620273820381726e-08
x[162] -1.0172309150568992e-07
x[163] 1.0000000325760274e+00
x[164] 1.0000001525489814e+00
x[165] 0
x[166] 1
x[167] 1
x[168] 0
x[169] 0
x[170] 1
x[171] 1
x[172] 0
x[173] 0
x[174] 0
x[175] 2.1740345936154626e-08
x[176] 0
x[177] 1
x[178] 0
x[179] 1
x[180] 1
x[181] 0
x[182] 1.0000000508264992e+00
x[183] 1
x[184] 2.9029794866435709e-08
x[185] 0
x[186] 1
x[187] 2.8931809095484008e-08
x[188] 0
x[189] 1
x[190] 1.0000001506749814e+00
x[191] 1
x[192] 0
x[193] 9.9999999999999911e-01
x[194] 0
x[195] 0
x[196] 0
x[197] 1.0000000653354284e+00
x[198] 1
x[199] 0
x[200] 1
x[201] 1
x[202] 1
x[203] 0
x[204] 0
x[205] 1.0000000508132854e+00
x[206] 0
x[207] -1.5258463870182482e-07
x[208] 0
x[209] 0
x[210] 1.0000001525324926e+00
x[211] 1
x[212] 9.9999999999999978e-01
x[213] 0
x[214] 1
x[215] 1
x[216] 1
x[217] 0
x[218] 1.0000000762343910e+00
x[219] 0
x[220] 1
x[221] -1.4531871483924874e-08
x[222] 1
x[223] 1
x[224] 1
x[225] 0
x[226] 1
x[227] 9.9999964720510759e-01
x[228] 1
x[229] 0
x[230] 0
x[231] 0
x[232] 0
x[233] -9.8389758172356585e-08
x[234] 0
x[235] 0
x[236] -1.1262199506312243e-07
x[237] 0
x[238] -3.2696709784119087e-08
x[239] 0
x[240] 1
x[241] -1.5258463854088824e-07
x[242] 0
x[243] 1.0000000144875594e+00
x[244] 0
x[245] 0
x[246] -1.0172309149363247e-07
x[247] 3.5609252734641627e-07
x[248] 0
x[249] 1.0000001016716895e+00
x[250] 0
x[251] 1
x[252] 0
x[253] 1.00000010168013
x[254] 1
x[255] 1
x[256] 0
x[257] 0
x[258] 1
x[259] -6.19394033788113e-08
x[260] 1
x[261] 1
x[262] 1
x[263] -4.3895244823121560e-08
x[264] 9.9999994913845425e-01
x[265] 1
x[266] 1
x[267] 9.9999999999999978e-01
x[268] 0
x[269] 0
x[270] 1
x[271] 7.2571907416315439e-08
x[272] 1
x[273] 0
x[274] 1.0000000326439531e+00
x[275] -5.0861546752045683e-08
x[276] 1
x[277] 1.00000005082569
x[278] 1
x[279] 0
x[280] 0
x[281] 1.0454559857854608e-07
x[282] 9.9999992734064846e-01
x[283] 1
x[284] 9.9999984741536130e-01
x[285] -1.2352089884259954e-07
x[286] -5.0861546627918769e-08
x[287] 0
x[288] 9.9999995640439032e-01
x[289] 1
x[290] 0
x[291] 1.0000001525188316e+00
x[292] 0
x[293] 0
x[294] 0
x[295] 1
x[296] 1
x[297] 0
x[298] 1
x[299] 0
x[300] 0
x[301] 1
x[302] 1
x[303] 1
x[304] 4.8955836547848667e-08
x[305] 0
x[306] 0
x[307] -2.1797805835491930e-08
x[308] 1
x[309] 0
x[310] 0
x[311] 0
x[312] 1
x[313] 0
x[314] 1
x[315] 0
x[316] 1
x[317] 9.9999991280878053e-01
x[318] 1
x[319] 1
x[320] 0
x[321] 1
x[322] 1
x[323] 0
x[324] 9.9999964387177420e-01
x[325] 1
x[326] 0
x[327] 1
x[328] 0
x[329] 0
x[330] 1
x[331] 1
x[332] 0
x[333] 1
x[334] 0
x[335] 1
x[336] 2.1742722677189959e-08
x[337] -2.9063742940803784e-08
x[338] 0
x[339] 0
x[340] 1
x[341] 1
x[342] 1
x[343] 0
x[344] 0
x[345] -1.4531871518475960e-08
x[346] 0
x[347] 0
x[348] 1
x[349] 0
x[350] 7.2562135343799845e-08
x[351] 0
x[352] 0
x[353] 0
x[354] 1
x[355] 0
x[356] 0
x[357] 1
x[358] 1
x[359] -5.0547857868987195e-08
x[360] 9.9999994913845314e-01
x[361] 8.70195332535928e-08
x[362] 1
x[363] 0
x[364] 0
x[365] 0
x[366] 1
x[367] 0
x[368] 1.0000000136085192e+00
x[369] 0
x[370] 1
x[371] 1
x[372] 1
x[373] 1
x[374] 1
x[375] 0
x[376] 0
x[377] -1.4789451146211303e-07
x[378] 1
x[379] 1
x[380] 1
x[381] 1
x[382] 0
x[383] 2.9019605641042622e-08
x[384] 0
x[385] 0
x[386] -1.5258463870182482e-07
x[387] 9.9999998910110011e-01
x[388] 0
x[389] 1
x[390] 0
x[391] 5.0825539312590253e-08
x[392] 0
x[393] 0
x[394] 1
x[395] 0
x[396] 1
x[397] 1
x[398] 0
x[399] 1
x[400] 1
x[401] 1.0000001524224924e+00
x[402] 1
x[403] 0
x[404] 1
x[405] 1
x[406] 1
x[407] -1.5258463873318454e-07
x[408] 9.9999997093625981e-01
x[409] 1
x[410] 1
x[411] 1
x[412] -4.5861546687928712e-08
x[413] 0
x[414] 1
x[415] 0
x[416] 0
x[417] 0
x[418] 1.0000000217620260e+00
x[419] 1
x[420] 1
x[421] 1
x[422] 0
x[423] 1
x[424] 1
x[425] 1
x[426] 9.9999997093625970e-01
x[427] 0
x[428] 1
x[429] 1
x[430] -7.62923191288678e-08
x[431] 0
x[432] 0
x[433] 0
x[434] 0
x[435] 0
x[436] 0
x[437] 0
x[438] 0
x[439] 0
x[440] 1
x[441] 0
x[442] 9.9999998159061054e-01
x[443] 0
x[444] 0
x[445] 0
x[446] 1.0000000253589048e+00
x[447] 1
x[448] 0
x[449] 0
x[450] 0
x[451] 1.0000001525417934e+00
x[452] 1
x[453] 5.0817400852587484e-08
x[454] 0
x[455] 0
x[456] 0
x[457] -2.7696709784119095e-08
x[458] 0
x[459] 5.0806809340916324e-08
x[460] -1.0172309133473723e-07
x[461] 1.0000000217565577e+00
x[462] 1
x[463] 1
x[464] 0
x[465] 1
x[466] 0
x[467] 0
x[468] -7.62923189068232e-08
x[469] 0
x[470] 1
x[471] 0
x[472] 0
x[473] 1
x[474] 1.0000000326325520e+00
x[475] 9.9999995640439021e-01
x[476] 1
x[477] 1.4324688793913848e-08
x[478] 1
x[479] 1
x[480] 1
x[481] 0
x[482] 1
x[483] 0
x[484] 0
x[485] 1.0000002142986950e+00
x[486] 2.8820357309163943e-08
x[487] 1
x[488] 1
x[489] 0
x[490] 0
x[491] 0
x[492] 0
x[493] 1
x[494] 0
x[495] 0
x[496] 0
x[497] 4.3515622462239454e-08
x[498] 1
x[499] 1
x[500] 1
x[501] 1
x[502] 1
x[503] 0
x[504] 0
x[505] 1
x[506] 1
x[507] 0
x[508] 1
x[509] 1
x[510] 1
x[511] 0
x[512] 0
x[513] 1
x[514] 1
x[515] 1
x[516] 1.0000000406444929e+00
x[517] 9.9999997093625981e-01
x[518] -1.5258463847978021e-07
x[519] 0
x[520] 1
x[521] 0
x[522] 0
x[523] 1.0000000142385370e+00
x[524] 1
x[525] -1.4531871483924874e-08
x[526] 1.0000000762516050e+00
x[527] 1
x[528] 0
x[529] 0
x[530] 0
x[531] -6.5393418902104372e-08
x[532] 1
x[533] -9.6772710131103517e-08
x[534] 9.9999996003735658e-01
x[535] 1
x[536] 0
x[537] 0
x[538] 1
x[539] 0
x[540] 0
x[541] -9.8389758172356585e-08
x[542] 0
x[543] 0
x[544] 1
x[545] 0
x[546] 0
x[547] 1
x[548] 1
x[549] 1
x[550] 0
x[551] 0
x[552] 0
x[553] 1
x[554] 0
x[555] 0
x[556] 1
x[557] 0
x[558] 0
x[559] 0
x[560] 1
x[561] 0
x[562] 0
x[563] -7.62923191288678e-08
x[564] -5.0861544975688844e-08
x[565] 1
x[566] 0
x[567] 1
x[568] 1
x[569] 0
x[570] 0
x[571] 1
x[572] 1
x[573] 1.0000001234666638e+00
x[574] 0
x[575] 9.9999988737800494e-01
x[576] -1.6348354892059547e-08
x[577] -2.1096536168448936e-07
x[578] 1
x[579] 1.0000000725085405e+00
x[580] 0
x[581] 0
x[582] 1
x[583] 0
x[584] 0
x[585] 0
x[586] 0
x[587] 1.0000000163053122e+00
x[588] 0
x[589] 9.9999994913845358e-01
x[590] 1
x[591] 1
x[592] -1.0172309342459093e-07
x[593] 0
x[594] 1
x[595] 1
x[596] 1
x[597] 1
x[598] 0
x[599] 9.9999994913845325e-01
x[600] 0
x[601] 5.0813805395499339e-08
x[602] -1.1419250495499143e-08
x[603] 1
x[604] 0
x[605] 1
x[606] 0
x[607] 0
x[608] 0
x[609] 0
x[610] 1
x[611] 1
x[612] 0
x[613] 9.9999994913845347e-01
x[614] 1
x[615] 4.3553231936191930e-08
x[616] 0
x[617] 0
x[618] 1.0000000798028963e+00
x[619] 0
x[620] 0
x[621] 1
x[622] 4.3562021950068457e-08
x[623] 0
x[624] 0
x[625] 1
x[626] 1.0000001016747415e+00
x[627] 1
x[628] 0
x[629] 0
x[630] 1
x[631] 9.9999999999999978e-01
x[632] 9.9999997591752177e-01
x[633] 0
x[634] 0
x[635] 0
x[636] 0
x[637] 0
x[638] 1
x[639] -1.0172309131339364e-07
x[640] 1
x[641] 1
x[642] 1
x[643] 2.8529685726860611e-08
x[644] 1.0000001016672520e+00
x[645] 1
x[646] 0
x[647] 0
x[648] 0
x[649] 2.9016801287755995e-08
x[650] 0
x[651] 1
x[652] 1
x[653] 1
x[654] 1
x[655] 1
x[656] 0
x[657] 1
x[658] 0
x[659] 1
x[660] 0
x[661] 0
x[662] 0
x[663] 0
x[664] 0
x[665] 0
x[666] 1
x[667] 1
x[668] 1
x[669] -7.12923191288678e-08
x[670] 1
x[671] 1
x[672] -5.5547857842767448e-08
x[673] 0
x[674] 0
x[675] 1
x[676] 1
x[677] 9.9999994913845325e-01
x[678] 4.3541151683795515e-08
x[679] 1.0000001525286060e+00
x[680] 1
x[681] 0
x[682] -1.8164851844915120e-09
x[683] 0
x[684] 0
x[685] 1.0000000555017354e+00
x[686] 1
x[687] 0
x[688] 0
x[689] 1
x[690] 1.0000001090810771e+00
x[691] 0
x[692] 0
x[693] 0
x[694] 1
x[695] 0
x[696] 0
x[697] 1
x[698] 0
x[699] 0
x[700] 0
x[701] 0
x[702] 1
x[703] 0
x[704] 0
x[705] 0
x[706] 0
x[707] 0
x[708] 1.0000001016601499e+00
x[709] 0
x[710] 1
x[711] 5.0726080368100778e-08
x[712] 1
x[713] 1.0000000326346217e+00
x[714] 1
x[715] 1
x[716] 1
x[717] 1
x[718] 0
x[719] 1
x[720] 0
x[721] 1
x[722] 1
x[723] 0
x[724] 1
x[725] 1
x[726] 1
x[727] 1.0000000141723111e+00
x[728] 3.5607578727238209e-07
x[729] 1
x[730] 0
x[731] 0
x[732] 9.9999997093625870e-01
x[733] 1
x[734] 1
x[735] 9.9999999999999989e-01
x[736] 0
x[737] 0
x[738] 1
x[739] 1
x[740] 0
x[741] -1.0172309150568992e-07
x[742] 0
x[743] 0
x[744] 1
x[745] 0
x[746] 0
x[747] 0
x[748] 1
x[749] 1
x[750] 1
x[751] 1.0000001012633999e+00
x[752] 0
x[753] 0
x[754] 0
x[755] 0
x[756] 1
x[757] 1
x[758] -1.2352089866568508e-07
x[759] 0
x[760] 0
x[761] 0
x[762] 2.9006756102921393e-08
x[763] -3.7311159673608143e-08
x[764] 1
x[765] 0
x[766] 0
x[767] 0
x[768] 1.0000000253961616e+00
x[769] 9.9999990887617651e-01
x[770] 1
x[771] 0
x[772] 0
x[773] 0
x[774] -9.4457159366086440e-08
x[775] 9.9999992734064846e-01
x[776] -7.2958985795534466e-08
x[777] 1
x[778] 0
x[779] 0
x[780] 1
x[781] 1
x[782] 1
x[783] -9.6723091491746471e-08
x[784] 0
x[785] 1
x[786] 0
x[787] -1.1198538164261078e-08
x[788] 0
x[789] 1
x[790] 0
x[791] 1
x[792] 1
x[793] 0
x[794] 1
x[795] 1
x[796] 0
x[797] 1
x[798] 1
x[799] 0
x[800] 0
x[801] 0
x[802] 9.9999964725754609e-01
x[803] 1
x[804] 9.9999997820219533e-01
x[805] 0
x[806] 1
x[807] 1
x[808] -7.6292318684778593e-08
x[809] 0
x[810] -1.6690265443149679e-08
x[811] 1
x[812] 0
x[813] 1
x[814] 0
x[815] 0
x[816] -2.93012883559019e-08
x[817] 1.1980491501983922e-07
x[818] 1
x[819] 1
x[820] 9.9999964387177420e-01
x[821] 1.0000001016720057e+00
x[822] 1
x[823] 1
x[824] 0
x[825] -1.4919915934570959e-07
x[826] 1.0000000122824286e+00
x[827] 9.9999985080472731e-01
x[828] 0
x[829] 1
x[830] 0
x[831] 1
x[832] -2.1797805560552774e-08
x[833] 0
x[834] 0
x[835] 0
x[836] 0
x[837] -7.9925286611270963e-08
x[838] 1.0000001234763694e+00
x[839] 0
x[840] 0
x[841] 1.0000000144554595e+00
x[842] 1
x[843] 1
x[844] 7.2613810120364920e-08
x[845] 5.0736523824311424e-08
x[846] 1
x[847] -1.5258463870182482e-07
x[848] 0
x[849] 1
x[850] 0
x[851] 0
x[852] 0
x[853] 0
x[854] 1
x[855] 1
x[856] 1
x[857] -1.4531871483924874e-08
x[858] 1
x[859] 5.0795257296912853e-08
x[860] 0
x[861] 1.0000001525220574e+00
x[862] 1
x[863] 0
x[864] 1.0000000017769308e+00
x[865] 0
x[866] 0
x[867] 9.9999995640438821e-01
x[868] 1
x[869] 0
x[870] 0
x[871] 1
x[872] 0
x[873] 0
x[874] 1
x[875] 1
x[876] -1.4531871518475960e-08
x[877] 0
x[878] 1
x[879] 0
x[880] 9.9999997093625947e-01
x[881] 0
x[882] 1.0000001525341227e+00
x[883] 1.0000001524486548e+00
x[884] 0.999999949138453
x[885] 0
x[886] 1
x[887] 1
x[888] 1
x[889] 9.9999990917580983e-01
x[890] 0
x[891] 0
x[892] 1
x[893] 1
x[894] 1
x[895] 1.0000000508206897e+00
x[896] 1.5253876690810785e-07
x[897] 0
x[898] 1
x[899] 0
x[900] 1
x[901] 1
x[902] 0
x[903] 1
x[904] 1
x[905] 1
x[906] -2.5430773487045144e-08
x[907] 1
x[908] 0
x[909] 0
x[910] 0
x[911] 0
x[912] 1
x[913] 1
x[914] 9.0783976920209626e-08
x[915] -4.0689236444266568e-08
x[916] 0
x[917] 0
x[918] 0
x[919] 0
x[920] 0
x[921] 1.0000002143012645e+00
x[922] 0
x[923] 1
x[924] 1
x[925] 0
x[926] 0
x[927] 1.0000000398794033e+00
x[928] 9.9999995973772016e-01
x[929] 0
x[930] -2.1101175174028166e-07
x[931] -4.6375022086112494e-07
x[932] 1
x[933] 9.9999991067651484e-01
x[934] 1.0000000144882391e+00
x[935] 1
x[936] 0
x[937] 0
x[938] 1
x[939] 1
x[940] 0
x[941] 1
x[942] -1.0172309150568992e-07
x[943] 7.2051322109707937e-08
x[944] 0
x[945] 1
x[946] 1
x[947] 0
x[948] -2.0943869253310239e-07
x[949] 1
x[950] 0
x[951] 1
x[952] 0
x[953] 1.0000000762516956e+00
x[954] 1
x[955] 0
x[956] -7.62923191288678e-08
x[957] 1
x[958] 1
x[959] 1
x[960] 0
x[961] 0
x[962] 1
x[963] 0
x[964] 0
x[965] 0
x[966] 1.0000000762553005e+00
x[967] 0
x[968] 9.9999984741536130e-01
x[969] 0
x[970] 1
x[971] 1
x[972] 1.0000001016759139e+00
x[973] 1
x[974] 1
x[975] 1.0000000144730328e+00
x[976] 0
x[977] 0
x[978] 0
x[979] 0
x[980] 0
x[981] 1
x[982] 1
x[983] 0
x[984] 1
x[985] 9.9999999999999989e-01
x[986] 0
x[987] 1
x[988] 1
x[989] 1
x[990] 0
x[991] 1
x[992] 0
x[993] 0
x[994] 0
x[995] 0
x[996] 0
x[997] 1
x[998] 0
x[999] 0
